QBPP_HJ*_30_025_20_4
30 80 184
33 4 44 28 10 12 29 27 34 2 26 10 20 20 3 39 49 30 47 7 45 50 49 24 5 31 25 12 48 32
    0    0    0    0    0    0    0   25    0  -49    0    0    0    0    0    0    0    0    0    0    0    0    0    0    4    0  -23  -27  -22  -26
    0    0  -47    0    0    0    0    0    0    0    0    0    0    0    0    0    0    0    0   38    0  -50    0    0  -45    0   18   41    0    0
    0  -47    0  -50    0    0    0  -14    0    0    0    0  -35    0    5    0    0    0    0    0    0    0    0    0    0    0   16    0    0    0
    0    0  -50    0    0    0   38    0   41    0    0    0    0    0    0    0    0    0    0   36    0    0    0  -42    0    0    0  -37    0    0
    0    0    0    0    0   35    0    0   50    5   -3    0    0    0    0    0    0  -27    0  -36    0    0    0   -4    0   31    0    0    0    0
    0    0    0    0   35    0    0  -31    0    0    0    0    0    0    0    0   34    0    0    0    0    0    0    0    0    0    0    0    0   48
    0    0    0   38    0    0    0   -7    0   21    0    0   22    0  -33    0   35    0    0  -41    0    0    0  -34  -34    0    0    0  -14  -23
   25    0  -14    0    0  -31   -7    0    0    0    0   42    0    0    0    0   20  -15    0    0    0    0    0    0    0    0    0    0    0    0
    0    0    0   41   50    0    0    0    0    0  -23   41    0    0    0   42   -2    0    0    0    0   13   -8    0    0  -35    0    0    0    0
  -49    0    0    0    5    0   21    0    0    0    0    0    0    0    0   -9   26    0    1  -43    0    0  -26    0   11    0    0    0    0    0
    0    0    0    0   -3    0    0    0  -23    0    0    0    2    0    0    0    0    0    0    0    0    0    0  -12    0   20    0    0    0    0
    0    0    0    0    0    0    0   42   41    0    0    0    0    0   32  -37    9    0    0    0  -42    0    0   -7    0    0    0  -40    0    0
    0    0  -35    0    0    0   22    0    0    0    2    0    0    0   31   43   20    0   24    0   35    0    0    0    0    0    0    0  -30    0
    0    0    0    0    0    0    0    0    0    0    0    0    0    0    0    0    0    0    0    0    0  -40    0  -36    7    4   -9  -34    0    0
    0    0    5    0    0    0  -33    0    0    0    0   32   31    0    0    0  -15  -43    0  -30    0  -37    0    0    0  -28    0  -19    0    0
    0    0    0    0    0    0    0    0   42   -9    0  -37   43    0    0    0    0    0    0    0    0    0    0    0    0  -37    0   41   14    0
    0    0    0    0    0   34   35   20   -2   26    0    9   20    0  -15    0    0    0    0    0    0    0    0  -29    0    0    0    0    0    0
    0    0    0    0  -27    0    0  -15    0    0    0    0    0    0  -43    0    0    0    0   -3    0    0  -25    0    0    0    0    0    0    0
    0    0    0    0    0    0    0    0    0    1    0    0   24    0    0    0    0    0    0    0   27    0    0    0    0    0    0    0    0   43
    0   38    0   36  -36    0  -41    0    0  -43    0    0    0    0  -30    0    0   -3    0    0    0    0  -46    0    0    0  -25    6    0    0
    0    0    0    0    0    0    0    0    0    0    0  -42   35    0    0    0    0    0   27    0    0    0    0   19   13    0    0    0    0    0
    0  -50    0    0    0    0    0    0   13    0    0    0    0  -40  -37    0    0    0    0    0    0    0    0    0    0    0  -13  -50  -37    0
    0    0    0    0    0    0    0    0   -8  -26    0    0    0    0    0    0    0  -25    0  -46    0    0    0    0  -50    0    0   43    0    0
    0    0    0  -42   -4    0  -34    0    0    0  -12   -7    0  -36    0    0  -29    0    0    0   19    0    0    0    0    0    0    0    0    0
    4  -45    0    0    0    0  -34    0    0   11    0    0    0    7    0    0    0    0    0    0   13    0  -50    0    0    0    0    0    0    0
    0    0    0    0   31    0    0    0  -35    0   20    0    0    4  -28  -37    0    0    0    0    0    0    0    0    0    0  -34    0    0    0
  -23   18   16    0    0    0    0    0    0    0    0    0    0   -9    0    0    0    0    0  -25    0  -13    0    0    0  -34    0    0    0    0
  -27   41    0  -37    0    0    0    0    0    0    0  -40    0  -34  -19   41    0    0    0    6    0  -50   43    0    0    0    0    0    0    0
  -22    0    0    0    0    0  -14    0    0    0    0    0  -30    0    0   14    0    0    0    0    0  -37    0    0    0    0    0    0    0    0
  -26    0    0    0    0   48  -23    0    0    0    0    0    0    0    0    0    0    0   43    0    0    0    0    0    0    0    0    0    0    0
